N = 50;
MinK = 6;
Capacity = 200;

Scale = 10;
DistanceRoundingMode = Floor;
X = array1d(0..N, [35, 41, 35, 55, 55, 15, 25, 20, 10, 55, 30, 20, 50, 30, 15, 30, 10, 5, 20, 15, 45, 45, 45, 55, 65, 65, 45, 35, 41, 64, 40, 31, 35, 53, 65, 63, 2, 20, 5, 60, 40, 42, 24, 23, 11, 6, 2, 8, 13, 6, 47]);
Y = array1d(0..N, [35, 49, 17, 45, 20, 30, 30, 50, 43, 60, 60, 65, 35, 25, 10, 5, 20, 30, 40, 60, 65, 20, 10, 5, 35, 20, 30, 40, 37, 42, 60, 52, 69, 52, 55, 65, 60, 20, 5, 12, 25, 7, 12, 3, 14, 38, 48, 56, 52, 68, 47]);

Demands = array1d(1..N, [10, 7, 13, 19, 26, 3, 5, 9, 16, 16, 12, 19, 23, 20, 8, 19, 2, 12, 17, 9, 11, 18, 29, 3, 6, 17, 16, 16, 9, 21, 27, 23, 11, 14, 8, 5, 8, 16, 31, 9, 5, 5, 7, 18, 16, 1, 27, 36, 30, 13]);

ServiceTimes = array1d(1..N, [10, 10, 10, 10, 10, 10, 10, 10, 10, 10, 10, 10, 10, 10, 10, 10, 10, 10, 10, 10, 10, 10, 10, 10, 10, 10, 10, 10, 10, 10, 10, 10, 10, 10, 10, 10, 10, 10, 10, 10, 10, 10, 10, 10, 10, 10, 10, 10, 10, 10]);

TimeWindows = array2d(1..2, 0..N, [|
    0,   0,   0,   0, 149,   0,   0,   0,  95,  97,   0, 67,   0, 159,   0, 61,   0,   0,   0,   0,   0,   0,   0, 68,   0, 172,   0,   0,   0,   0,   0,   0,   0,   0,   0,   0,   0,   0, 83,   0,   0,   0,   0,   0, 69,   0,   0,   0,   0,   0,   0 |
  230, 204, 202, 197, 159, 199, 208, 198, 105, 107, 194, 77, 205, 169, 187, 71, 190, 189, 204, 187, 188, 201, 193, 78, 190, 182, 208, 215, 213, 190, 194, 202, 186, 195, 183, 178, 178, 198, 93, 186, 208, 191, 194, 185, 79, 190, 184, 185, 192, 176, 203
|]);
